SCIP version 5.0.0 [precision: 8 byte] [memory: block] [mode: optimized] [LP solver: NONE] [GitHash: 3bbd232]
Copyright (C) 2002-2017 Konrad-Zuse-Zentrum fuer Informationstechnik Berlin (ZIB)

External codes: 
  Readline EditLine w  GNU library for command line editing (gnu.org/s/readline)
  CppAD 20160000.1     Algorithmic Differentiation of C++ algorithms developed by B. Bell (www.coin-or.org/CppAD)
  ZLIB 1.2.5           General purpose compression library by J. Gailly and M. Adler (zlib.net)
  GMP 6.1.2            GNU Multiple Precision Arithmetic Library developed by T. Granlund (gmplib.org)

user parameter file <scip.set> not found - using default parameters

read problem <../../Split_data/output/parkin/5/0_sample_parkin.logreg>
============

File name	:	../../Split_data/output/parkin/5/0_sample_parkin.logreg
Problem name 	:	0_sample_parkin
Number of data	:	156
Number of var	:	22
The given data has linear independence

[dim=1] time: 0.003182
[dim=2] time: 0.006424
[dim=3] time: 0.009039
[dim=4] time: 0.011285
[dim=5] time: 0.013455
[dim=6] time: 0.015484
[dim=7] Time of forward = 0.017466sec.
AIC: 83.5464
k: 6

[dim=22] time: 0.091317
[dim=21] time: 0.171244
[dim=20] time: 0.454036
[dim=19] time: 0.499566
[dim=18] time: 0.543485
[dim=17] time: 0.586534
[dim=16] time: 0.606378
[dim=15] time: 0.632276
[dim=14] time: 0.651921
[dim=13] time: 0.671571
[dim=12] time: 0.677169
[dim=11] time: 0.687209
[dim=10] time: 0.693345
[dim=9] time: 0.695225
[dim=8] Time of backward = 0.696821sec.
AIC: 79.1252
k: 9
